Li30 Mn10 Co10 Ni10 O60                 
1.0
       25.1489048004         0.0000000000         0.0000000000
       -5.2166638651         8.7980371598         0.0000000000
       -0.8445409134        -1.3434181306         4.7864187355
   Li   Mn   Co   Ni    O
   30   10   10   10   60
Cartesian
     0.355545675         0.814996633         4.778820533
    -2.258218045         5.207735257         4.778621398
     6.239418955         2.149025894         0.004109800
     3.631608706         6.548404597         0.003257391
    11.256731218         2.203255117         0.001428341
     8.650508801         6.603666671         0.003213019
    15.454758434         0.841583493         4.766048830
    12.839898998         5.234718387         4.761064480
    20.478942884         0.818441637         4.770937608
    17.874566533         5.227109922         4.778449367
     2.905663800        -0.643351638         4.777452268
     0.298762859         3.758783379         4.773512660
     7.934895214        -0.626152409         4.755892692
     5.327928080         3.775516893         4.756651286
    13.835601129         0.710751728         0.001554217
    10.380276990         3.761752441         4.784671032
    18.003538183        -0.623433752         4.758059491
    15.387612919         3.781520616         4.770601247
    23.030734230        -0.633872048         4.773510663
    20.424055672         3.755522614         4.770584986
    -1.354170162         3.707533849         0.027355921
    -3.963683787         8.110418486         0.034783126
     3.669270862         3.706650707         0.032122323
     1.054895260         8.107372802         0.032978081
     8.729719034         3.699677048         0.042903364
     6.122696333         8.097757654         0.042387969
    13.724679340         3.737495211         0.001288957
    11.124060915         8.140265939         0.003190830
    18.760567449         3.732601183         0.030128447
    16.160664754         8.117607483         0.018177157
    -0.396182881        -0.664852915         2.399398224
    -3.004017826         3.733062195         2.394739678
    -0.589936559         8.124306788         2.398828495
     2.019518907         3.725506269         2.396793216
     4.415509992         8.119365458         2.410901515
     7.024018816         3.720797089         2.411688067
    14.700131248        -0.631548940         2.373429733
    12.090266121         3.766126286         2.371659920
    19.726821014        -0.653463375         2.384028931
    17.117804630         3.747181180         2.393736589
    -0.467745121         2.262612849         2.391806868
    -3.077101719         6.661857729         2.394142275
     4.554741922         2.252239201         2.396606349
     1.946174019         6.650714449         2.396039472
     9.576463106         2.249605014         2.394658940
     6.969736315         6.649640759         2.396557849
    14.624800741         2.289622290         2.382215468
    12.015921620         6.688768608         2.377308004
    19.656452441         2.272549126         2.385949950
    17.049383560         6.672344340         2.389063636
     2.048627224         0.780961065         2.399923163
    -0.559497336         5.179465079         2.397413442
     7.077716425         0.772688511         2.408974362
     4.470058292         5.172401277         2.408777225
    12.124587983         0.796441244         2.383476604
     9.516091003         5.195748037         2.383254076
    17.149545918         0.805929903         2.387778677
    14.540729731         5.203401477         2.387223354
    22.173712975         0.789288418         2.393359717
    19.565713723         5.188271229         2.398060486
    -1.206436775         0.795392993         3.433032826
    -3.813169552         5.192996271         3.431823755
     3.819330900         0.788788440         3.435097205
     1.211209884         5.186837487         3.432766077
     8.824766608         0.714174816         3.495532773
     6.217704788         5.113968917         3.496780644
    13.887919212         0.820797323         3.418197031
    11.278805171         5.219041927         3.415372347
    18.917468257         0.804850960         3.420462541
    16.307949847         5.208531475         3.427848771
     2.912617168         2.322748619         1.351388717
     0.303138834         6.722510629         1.351773292
     7.913862349         2.334732085         1.331658438
     5.306635510         6.733440329         1.332130741
    12.974447016         2.353443657         1.335336148
    10.366230536         6.754306295         1.334827043
    18.012151001         2.347279512         1.345175183
    15.407556579         6.742144449         1.340569987
    23.038703374         2.329255536         1.349420910
    20.428272658         6.730092708         1.354102280
     0.378945389         3.621841789         1.323018204
    -2.231126643         8.020460159         1.325836041
     5.397588492         3.622181434         1.336543079
     2.788550412         8.020421646         1.336232538
    10.474886839         3.696088496         1.276299227
     7.868042229         8.095939418         1.277954211
    15.477220542         3.643341773         1.317188103
    12.868531468         8.041495994         1.309542256
    20.504145607         3.629946890         1.321614421
    17.896975265         8.029954348         1.323118056
     1.146975797        -0.642557699         3.546967925
    -1.461436205         3.755009666         3.542238912
     6.166675277        -0.657043115         3.543962651
     3.559723683         3.742679795         3.543055705
    11.220558211        -0.683183554         3.508436281
     8.612362335         3.715730173         3.508380363
    16.243938004        -0.617539883         3.526931242
    13.632744297         3.780552898         3.527024532
    21.268348717        -0.633443760         3.535641231
    18.661583126         3.764869444         3.541674888
     0.346878600         0.669631392         1.261079856
    -2.261900532         5.068678586         1.257635373
     5.372635305         0.664871209         1.265051702
     2.765518227         5.064025307         1.263755189
    10.365973884         0.707347348         1.296894228
     7.758146692         5.106860148         1.297752389
    15.454518922         0.702307518         1.247976215
    12.844932375         5.097762407         1.244887921
    20.470712273         0.682179508         1.248706565
    17.862693605         5.082579132         1.257182613
     1.138108842         2.345032744         3.465574178
    -1.469722851         6.742775018         3.466571561
     6.171714514         2.326122077         3.467062835
     3.562928090         6.725126021         3.467132732
    11.220844565         2.374455139         3.455749550
     8.614453124         6.774839352         3.456743225
    16.233026139         2.368387885         3.459275769
    13.624658831         6.765464444         3.450251102
    21.264039139         2.351203882         3.462148667
    18.655291348         6.752006950         3.467183229
