Li36 Mn18 Ni6 O60                       
   1.00000000000000     
    25.2777595350729065   -0.1731261866955592    0.1234414342914231
    -5.1067207912500425    8.7530537637609456    0.1112290545876161
    -0.7962478048629366   -1.4419617789251009    4.7453954452420861
   Li   Mn   Ni   O 
    36    18     6    60
Direct
  0.0710288364288161  0.8446480857053373  0.5009793583505342
  0.3976845389206076  0.4986595608554509  0.5096643216505896
  0.5996355916729144  0.9971585066284803  0.5001227623820412
  0.6006385163856578  0.4999537283312492  0.5076826489089328
  0.7985469042024391  0.9982122743208635  0.4949492853339947
  0.1058920303055402  0.2500944008823609  0.9985195144709778
  0.1054483104581720  0.7766874359127129  0.0168926135649201
  0.2972675323288385  0.2508329100721340  0.9944535002356147
  0.2957307811301817  0.7341203454924639  0.9866789740724258
  0.5003164396604376  0.2589666047556705  0.0145910116582186
  0.4976232647656289  0.7426083182563019  0.9881861640133422
  0.6978669524042758  0.2462489716663043  0.9945139647700998
  0.6986419587851884  0.7485709098468476  0.9958682575143385
  0.8952343211663703  0.2472801538970302  0.9901812301981820
  0.8984253636917074  0.7475453996029771  0.9996500588147654
  0.1722811905998469  0.0954515422502311  0.0176507663729240
  0.1742011410823991  0.5920085320306967  0.0127097080882308
  0.3628272833319386  0.0868553569628503  0.0048273326012378
  0.3641748079768945  0.5739849046525123  0.9811804073145183
  0.5656343859777380  0.0731180407764214  0.0096720521235341
  0.5687268584818597  0.5814103550614504  0.0086060914523429
  0.7668104888420189  0.0802024921231066  0.0052263922500941
  0.7669359454797160  0.5793887897317660  0.0012126560856487
  0.9633807028016150  0.0770673616713964  0.9850853210960224
  0.9685035487571483  0.5893305785145202  0.9970790152457667
  0.0357037013976296  0.4271421382356664  0.0092415332343592
  0.0418595146939396  0.9236393274227908  0.0066352626723969
  0.2381341925383040  0.4212478713986343  0.0131808743956725
  0.2339959973712880  0.9198136086348185  0.9894990878067489
  0.4297492572318049  0.4179551263618464  0.0152802338463900
  0.4306066006717941  0.8939331636931556  0.9906315450378074
  0.6313730156181734  0.4162939569435409  0.0003491125385082
  0.6316140781484805  0.9153452664799744  0.0020707154945612
  0.8298577863895176  0.4210791276713053  0.9874229442146643
  0.8294043589452116  0.9152479419134849  0.9843769160491362
  0.7993827238092734  0.4998337800918762  0.4954302902608916
  0.1349697530263825  0.6759809992216361  0.5037466196182478
  0.3351087915016464  0.1758643036063248  0.5163143545198352
  0.5350995021145124  0.1660466589012373  0.5053123535801092
  0.5359508676832689  0.6680680687319054  0.5063015359177498
  0.7327250061781783  0.1660149565516207  0.4989632879955010
  0.7324837978794534  0.6649742141492538  0.4982275941310590
  0.4691888798174162  0.3406109107030204  0.5158673858376090
  0.4675114352966148  0.8238825873207958  0.5022379899566403
  0.6667927525214381  0.3327157664846609  0.5005646150926708
  0.6676477046688092  0.8339318956144979  0.5022167578217775
  0.8646029018443144  0.3334521354110365  0.4974020193163611
  0.8637567803864528  0.8297033466244699  0.4911492145544329
  0.9992267145050135  0.9976442114981623  0.4890111582526657
  0.9996218773058203  0.5059401738917586  0.4979107190702550
  0.9290282022419376  0.1630982832539090  0.4917653241559634
  0.9326351412845781  0.6681899006199359  0.4969905569528095
  0.0657319069030038  0.3321007410712724  0.4903033718333347
  0.3986111398018437  0.9926601078049089  0.5006978596180005
  0.2661180229641573  0.8294652468866559  0.4932630825362736
  0.1336641145234196  0.1651789961232382  0.4945959333895544
  0.3326962835558973  0.6588146625369760  0.4952481645717910
  0.1999316521496155  0.0047318172625097  0.5040439063142088
  0.2014999422323385  0.5004089173917237  0.4928405183937627
  0.2674341150399471  0.3354205087259743  0.5094671491144069
  0.0110985769889780  0.1997999799205914  0.7054298594316819
  0.0109654807279256  0.6924056699580134  0.7195192032812301
  0.2184772508555639  0.2177062694627381  0.7354340596535565
  0.2087079901640507  0.7006520511574621  0.7258736162550079
  0.4181055928828457  0.2208159558562670  0.7448604436903068
  0.4223360540580785  0.7137530225716802  0.7357250531236232
  0.6147828132995130  0.2137990978721334  0.7288293259549121
  0.6170654766089498  0.7168707038678690  0.7306617985308534
  0.8146124538982562  0.2180139171548277  0.7254701728185466
  0.8140012978239923  0.7148801887402030  0.7217893206819355
  0.1819110439395999  0.2866755083052084  0.2718387895144900
  0.1786496449428725  0.7834984330863435  0.2650335018729209
  0.3905161171557054  0.2949506297175617  0.2941723405105705
  0.3893419765730926  0.7786764459866333  0.2681621321336465
  0.5856139293817009  0.2832643857256798  0.2780212070255459
  0.5879888267716211  0.7857020763642595  0.2787198594391569
  0.7854851765415845  0.2860625000873043  0.2715737718878373
  0.7845773566809555  0.7830360917946280  0.2688347820797787
  0.9841732726265278  0.3003504072519902  0.2757571273488892
  0.9813067045794241  0.8019872619167714  0.2678533508448098
  0.1123784831105326  0.4580287644310630  0.2698304753737446
  0.1204397020424182  0.9785948488855283  0.2609789541540906
  0.3142310173114282  0.4601102100631991  0.2887884959429243
  0.3241775328959378  0.9765888441384760  0.2808082906415166
  0.5167219987719065  0.4643452314729402  0.2848452587778851
  0.5167248960513220  0.9675475542913361  0.2801679924094742
  0.7132460250792363  0.4628130462789102  0.2737525444624396
  0.7147204047860924  0.9657289585224547  0.2756792970544879
  0.9180009460765604  0.4504049516782089  0.2637283885881629
  0.9150235988668385  0.9481939713425689  0.2581949691231458
  0.0765911030624622  0.0447586191172604  0.7130115722195498
  0.0763094083554421  0.5277829044930371  0.7131367516389631
  0.2870149886872184  0.0459347253078661  0.7326685499048224
  0.2844524717872261  0.5404479350360276  0.7306176862573253
  0.4825099372325568  0.0313625920886267  0.7202229135159897
  0.4904497501111891  0.5400702806903226  0.7371849348059385
  0.6868285587790268  0.0366241708760313  0.7260176343282581
  0.6859502454451416  0.5347717542608734  0.7247062318542064
  0.8819065304299940  0.0321009078859049  0.7178563777080598
  0.8828702004241293  0.5337380869564896  0.7198259810612342
  0.0440789320866131  0.1291717157615295  0.2602765959723712
  0.0495772830774257  0.6190260750089251  0.2733976139257521
  0.2599872620634045  0.1395189348539247  0.2793296217423702
  0.2510959204908687  0.6262185223331542  0.2500461463335242
  0.4557294130396343  0.1378246714683655  0.2931244148265222
  0.4607525859990389  0.6420463315969087  0.2802085005353661
  0.6572428969027158  0.1420133430924864  0.2753678612472825
  0.6573845382266583  0.6423506854786964  0.2753590885563426
  0.8532004681427523  0.1399157189770222  0.2695974947419515
  0.8533050929411061  0.6384321418575496  0.2706653001414736
  0.1395719640230482  0.3589810578942263  0.7098370383846557
  0.1492392743886271  0.8603393644299118  0.7358469491373469
  0.3486425442696302  0.3630383887606925  0.7463741289011878
  0.3510155694741570  0.8626792885958849  0.7219413331605651
  0.5453678104682069  0.3578767701394199  0.7356816987183521
  0.5467022066796403  0.8599809810457089  0.7302076774809052
  0.7425962014977898  0.3569501857698754  0.7253778828119550
  0.7436637482936490  0.8570414175942034  0.7258256133069168
  0.9464031610578374  0.3818128038725490  0.7278051290510135
  0.9470024181898467  0.8850962636179887  0.7234034314571787
 
  0.00000000E+00  0.00000000E+00  0.00000000E+00
  0.00000000E+00  0.00000000E+00  0.00000000E+00
  0.00000000E+00  0.00000000E+00  0.00000000E+00
  0.00000000E+00  0.00000000E+00  0.00000000E+00
  0.00000000E+00  0.00000000E+00  0.00000000E+00
  0.00000000E+00  0.00000000E+00  0.00000000E+00
  0.00000000E+00  0.00000000E+00  0.00000000E+00
  0.00000000E+00  0.00000000E+00  0.00000000E+00
  0.00000000E+00  0.00000000E+00  0.00000000E+00
  0.00000000E+00  0.00000000E+00  0.00000000E+00
  0.00000000E+00  0.00000000E+00  0.00000000E+00
  0.00000000E+00  0.00000000E+00  0.00000000E+00
  0.00000000E+00  0.00000000E+00  0.00000000E+00
  0.00000000E+00  0.00000000E+00  0.00000000E+00
  0.00000000E+00  0.00000000E+00  0.00000000E+00
  0.00000000E+00  0.00000000E+00  0.00000000E+00
  0.00000000E+00  0.00000000E+00  0.00000000E+00
  0.00000000E+00  0.00000000E+00  0.00000000E+00
  0.00000000E+00  0.00000000E+00  0.00000000E+00
  0.00000000E+00  0.00000000E+00  0.00000000E+00
  0.00000000E+00  0.00000000E+00  0.00000000E+00
  0.00000000E+00  0.00000000E+00  0.00000000E+00
  0.00000000E+00  0.00000000E+00  0.00000000E+00
  0.00000000E+00  0.00000000E+00  0.00000000E+00
  0.00000000E+00  0.00000000E+00  0.00000000E+00
  0.00000000E+00  0.00000000E+00  0.00000000E+00
  0.00000000E+00  0.00000000E+00  0.00000000E+00
  0.00000000E+00  0.00000000E+00  0.00000000E+00
  0.00000000E+00  0.00000000E+00  0.00000000E+00
  0.00000000E+00  0.00000000E+00  0.00000000E+00
  0.00000000E+00  0.00000000E+00  0.00000000E+00
  0.00000000E+00  0.00000000E+00  0.00000000E+00
  0.00000000E+00  0.00000000E+00  0.00000000E+00
  0.00000000E+00  0.00000000E+00  0.00000000E+00
  0.00000000E+00  0.00000000E+00  0.00000000E+00
  0.00000000E+00  0.00000000E+00  0.00000000E+00
  0.00000000E+00  0.00000000E+00  0.00000000E+00
  0.00000000E+00  0.00000000E+00  0.00000000E+00
  0.00000000E+00  0.00000000E+00  0.00000000E+00
  0.00000000E+00  0.00000000E+00  0.00000000E+00
  0.00000000E+00  0.00000000E+00  0.00000000E+00
  0.00000000E+00  0.00000000E+00  0.00000000E+00
  0.00000000E+00  0.00000000E+00  0.00000000E+00
  0.00000000E+00  0.00000000E+00  0.00000000E+00
  0.00000000E+00  0.00000000E+00  0.00000000E+00
  0.00000000E+00  0.00000000E+00  0.00000000E+00
  0.00000000E+00  0.00000000E+00  0.00000000E+00
  0.00000000E+00  0.00000000E+00  0.00000000E+00
  0.00000000E+00  0.00000000E+00  0.00000000E+00
  0.00000000E+00  0.00000000E+00  0.00000000E+00
  0.00000000E+00  0.00000000E+00  0.00000000E+00
  0.00000000E+00  0.00000000E+00  0.00000000E+00
  0.00000000E+00  0.00000000E+00  0.00000000E+00
  0.00000000E+00  0.00000000E+00  0.00000000E+00
  0.00000000E+00  0.00000000E+00  0.00000000E+00
  0.00000000E+00  0.00000000E+00  0.00000000E+00
  0.00000000E+00  0.00000000E+00  0.00000000E+00
  0.00000000E+00  0.00000000E+00  0.00000000E+00
  0.00000000E+00  0.00000000E+00  0.00000000E+00
  0.00000000E+00  0.00000000E+00  0.00000000E+00
  0.00000000E+00  0.00000000E+00  0.00000000E+00
  0.00000000E+00  0.00000000E+00  0.00000000E+00
  0.00000000E+00  0.00000000E+00  0.00000000E+00
  0.00000000E+00  0.00000000E+00  0.00000000E+00
  0.00000000E+00  0.00000000E+00  0.00000000E+00
  0.00000000E+00  0.00000000E+00  0.00000000E+00
  0.00000000E+00  0.00000000E+00  0.00000000E+00
  0.00000000E+00  0.00000000E+00  0.00000000E+00
  0.00000000E+00  0.00000000E+00  0.00000000E+00
  0.00000000E+00  0.00000000E+00  0.00000000E+00
  0.00000000E+00  0.00000000E+00  0.00000000E+00
  0.00000000E+00  0.00000000E+00  0.00000000E+00
  0.00000000E+00  0.00000000E+00  0.00000000E+00
  0.00000000E+00  0.00000000E+00  0.00000000E+00
  0.00000000E+00  0.00000000E+00  0.00000000E+00
  0.00000000E+00  0.00000000E+00  0.00000000E+00
  0.00000000E+00  0.00000000E+00  0.00000000E+00
  0.00000000E+00  0.00000000E+00  0.00000000E+00
  0.00000000E+00  0.00000000E+00  0.00000000E+00
  0.00000000E+00  0.00000000E+00  0.00000000E+00
  0.00000000E+00  0.00000000E+00  0.00000000E+00
  0.00000000E+00  0.00000000E+00  0.00000000E+00
  0.00000000E+00  0.00000000E+00  0.00000000E+00
  0.00000000E+00  0.00000000E+00  0.00000000E+00
  0.00000000E+00  0.00000000E+00  0.00000000E+00
  0.00000000E+00  0.00000000E+00  0.00000000E+00
  0.00000000E+00  0.00000000E+00  0.00000000E+00
  0.00000000E+00  0.00000000E+00  0.00000000E+00
  0.00000000E+00  0.00000000E+00  0.00000000E+00
  0.00000000E+00  0.00000000E+00  0.00000000E+00
  0.00000000E+00  0.00000000E+00  0.00000000E+00
  0.00000000E+00  0.00000000E+00  0.00000000E+00
  0.00000000E+00  0.00000000E+00  0.00000000E+00
  0.00000000E+00  0.00000000E+00  0.00000000E+00
  0.00000000E+00  0.00000000E+00  0.00000000E+00
  0.00000000E+00  0.00000000E+00  0.00000000E+00
  0.00000000E+00  0.00000000E+00  0.00000000E+00
  0.00000000E+00  0.00000000E+00  0.00000000E+00
  0.00000000E+00  0.00000000E+00  0.00000000E+00
  0.00000000E+00  0.00000000E+00  0.00000000E+00
  0.00000000E+00  0.00000000E+00  0.00000000E+00
  0.00000000E+00  0.00000000E+00  0.00000000E+00
  0.00000000E+00  0.00000000E+00  0.00000000E+00
  0.00000000E+00  0.00000000E+00  0.00000000E+00
  0.00000000E+00  0.00000000E+00  0.00000000E+00
  0.00000000E+00  0.00000000E+00  0.00000000E+00
  0.00000000E+00  0.00000000E+00  0.00000000E+00
  0.00000000E+00  0.00000000E+00  0.00000000E+00
  0.00000000E+00  0.00000000E+00  0.00000000E+00
  0.00000000E+00  0.00000000E+00  0.00000000E+00
  0.00000000E+00  0.00000000E+00  0.00000000E+00
  0.00000000E+00  0.00000000E+00  0.00000000E+00
  0.00000000E+00  0.00000000E+00  0.00000000E+00
  0.00000000E+00  0.00000000E+00  0.00000000E+00
  0.00000000E+00  0.00000000E+00  0.00000000E+00
  0.00000000E+00  0.00000000E+00  0.00000000E+00
  0.00000000E+00  0.00000000E+00  0.00000000E+00
  0.00000000E+00  0.00000000E+00  0.00000000E+00
  0.00000000E+00  0.00000000E+00  0.00000000E+00
  0.00000000E+00  0.00000000E+00  0.00000000E+00
