Li36 Mn18 Ni6 O60                       
   1.00000000000000     
    25.0932168603971988   -0.0045968227142467    0.0720705070157231
    -5.0074317931064529    8.7098252545056702   -0.0570230910393771
    -0.8388586139646950   -1.4966772086807933    4.7966070511263226
   Li   Mn   Ni   O 
    36    18     6    60
Direct
  0.0633383254923743  0.8284624516615722  0.5003730903685266
  0.2703265494597602  0.8381355138724231  0.4984264054808065
  0.3972891647549019  0.4965130385089580  0.5031312777925905
  0.5995221682627374  0.9986809000591421  0.4970985012093649
  0.6000978091740095  0.5010554810669134  0.5025735297525742
  0.8028208318280221  0.0039214309739677  0.4986030045233605
  0.0968697804847238  0.2457825453553326  0.9924052534616266
  0.0956368638194149  0.7474296714653761  0.0026706158603105
  0.3042729780328273  0.2623295327008748  0.0031778913739089
  0.3015817367177931  0.7653368568536933  0.9947453891799185
  0.5003542155051477  0.2527378552074282  0.0032187057653559
  0.4980172955296567  0.7455974575649122  0.9928150923757855
  0.6991979083213025  0.2462180745625702  0.9954848714093387
  0.7018541615376037  0.7546977685754257  0.0072304252376156
  0.9001645120911164  0.2413482122297239  0.0077371417569907
  0.9012678058118411  0.7442079830636388  0.0135555132861001
  0.1646717843140237  0.0770936820920625  0.9907732159959224
  0.1692036246625008  0.5903314358791363  0.0101800626142676
  0.3629491817688191  0.0718075986468776  0.9973607835315335
  0.3656890086972950  0.5691980199291962  0.0057848303297519
  0.5669228539276929  0.0784238589948885  0.0031749611831700
  0.5677121734566413  0.5820677906144809  0.9973491200081170
  0.7705495765420807  0.0848174332919953  0.9983424909221412
  0.7697767320002811  0.5886085607546150  0.0044622106547010
  0.9651212468720018  0.0886450833122652  0.9861614910282555
  0.9661285942611286  0.5912190540359816  0.9920800994395762
  0.0293853070389645  0.4058618684728543  0.0019512089162745
  0.0309533205088286  0.9005279790514180  0.0013803421361303
  0.2367571843242260  0.4213753174339487  0.0098191957680598
  0.2378325594922330  0.9197959244583060  0.0000924201576282
  0.4296535275083926  0.4151308239272922  0.9996922330736098
  0.4302697200428796  0.9114413866795843  0.9936191238074059
  0.6327078957952423  0.4213132044777268  0.9965279976553845
  0.6319289711169986  0.9173792104369127  0.0020025945867985
  0.8369920201457504  0.4274067882966435  0.9977034305608612
  0.8353537367011512  0.9318365221837084  0.9980528746229638
  0.1332134382419738  0.1640418600042679  0.4986985765284757
  0.1337207503421922  0.6698099204730497  0.5024787715693364
  0.3337856601046312  0.1671845286434603  0.5003147363192610
  0.3339334116185526  0.6673878816042063  0.5004040828491583
  0.5340356848349757  0.1673378444209561  0.5007401009977386
  0.5335976526146098  0.6665659665680153  0.4990170771139901
  0.7324061675323890  0.1629285096927475  0.4979256513501653
  0.7324434615935118  0.6680106148684857  0.5006728651532626
  0.4671273778524636  0.3365161419566860  0.5005693906254507
  0.4672235738836079  0.8317481651779914  0.4992969420490141
  0.6654215734780848  0.3321470707344076  0.4988554414876845
  0.6660050847568044  0.8330225990850053  0.5003459477635062
  0.8657382049561733  0.3295275855085364  0.4976450166087218
  0.8659243166666926  0.8353545063111625  0.5019329505560179
  0.0001573306194089  0.9971701572435947  0.4976796941582222
  0.0004379148934532  0.5031732018848913  0.5022268096503453
  0.2005073990784609  0.9979464465242671  0.4995151322642286
  0.2010358386990561  0.5035098009029113  0.5016430976636599
  0.9319179417516850  0.1648526506240486  0.4993418901555344
  0.9343264944775527  0.6678645747755496  0.5004719113144915
  0.0656363477111768  0.3320359565447291  0.5013435273659042
  0.2696337469809791  0.3368128951363687  0.4997470124531134
  0.3977375300158457  0.9971333535794571  0.5000896708173599
  0.8007209268709516  0.5011244086187148  0.4989950281267497
  0.0165201502082724  0.1991590857195646  0.7328969417260467
  0.0159663499842253  0.6964823462919938  0.7382164765523527
  0.2108662599257087  0.1945155328591923  0.7240135918701753
  0.2100634922692350  0.6925131525253860  0.7289920749196241
  0.4157465500900273  0.2147703167797346  0.7239152059129523
  0.4160525517571969  0.7153422764340149  0.7201803883010811
  0.6151532590933542  0.2173231781409513  0.7240205502987465
  0.6147742212897995  0.7172396861728956  0.7235149261777281
  0.8137183859702262  0.2145713818179118  0.7199021761077873
  0.8139346782369898  0.7137921595710779  0.7232035329762141
  0.1812122323746905  0.2954819620671216  0.2784823735840476
  0.1790440800154016  0.7933324318800032  0.2757725015829990
  0.3861043040254799  0.2861275042952016  0.2789684339701850
  0.3854642643479167  0.7855828979197952  0.2766608811095921
  0.5844336210445462  0.2823354342743158  0.2757356692379531
  0.5847589465606049  0.7823601912542131  0.2758986686719709
  0.7838444596390701  0.2843856774085367  0.2749575710129122
  0.7838195066299747  0.7838962480616445  0.2791365298857471
  0.9851888846648009  0.3031046860437883  0.2697159484623199
  0.9841526893567192  0.8036897312793130  0.2650981346237415
  0.1232313543064976  0.4729125652488761  0.2767303082044421
  0.1242330247882180  0.9750750467323499  0.2725076774306245
  0.3167687457967006  0.4690295457461673  0.2638644244602517
  0.3184851095934320  0.9710838004340445  0.2625385659690949
  0.5133345090049986  0.4610799643139458  0.2758443489257800
  0.5136960580073975  0.9622378865242354  0.2767881876395251
  0.7130648211613746  0.4604009709514045  0.2763040286655638
  0.7117787064421108  0.9596261464576159  0.2750698246737571
  0.9183562110166577  0.4535969631722452  0.2772714748130198
  0.9176710456908097  0.9523568205766892  0.2779125102227198
  0.0826110573048382  0.0490364888593930  0.7209234195200764
  0.0820694419654231  0.5481883968906516  0.7250284911352765
  0.2817718377484013  0.0483854717421508  0.7214389187235497
  0.2820539788678573  0.5486988421134100  0.7244010628783855
  0.4864383965059247  0.0390812468849475  0.7228549248755698
  0.4878083416974093  0.5398787412516910  0.7243620986718184
  0.6863821395687779  0.0387115726972311  0.7234699579086268
  0.6859223108890760  0.5374497899398136  0.7228859397427669
  0.8821185869975281  0.0290712050262840  0.7346951365328493
  0.8810810590012537  0.5297081378587620  0.7301815380019647
  0.0523253031426663  0.1190305814048571  0.2759076343895401
  0.0522662470350710  0.6180538820019237  0.2801181311933760
  0.2521942059150604  0.1198930945140546  0.2765441620875535
  0.2512686155182351  0.6189680167743958  0.2800774087257238
  0.4565520879936216  0.1397111585524655  0.2769392283681498
  0.4573821989730504  0.6421172698242898  0.2716418611875753
  0.6553614532342706  0.1387909401639575  0.2705346871238348
  0.6557887238252462  0.6393810455693227  0.2715313397107124
  0.8503177038481482  0.1363963904878887  0.2617874650292222
  0.8497255625175200  0.6335231168020528  0.2667534920144519
  0.1530373874870321  0.3720872293243858  0.7225837031743083
  0.1550035971212083  0.8742428296072831  0.7252989515152066
  0.3489172740327149  0.3630429463697311  0.7378804410540170
  0.3507695714610719  0.8653676576984068  0.7368030449820111
  0.5441432370612276  0.3607592088910536  0.7288790969847625
  0.5438403452270535  0.8603226736968566  0.7278489185952779
  0.7430863270493830  0.3599625675877007  0.7228566111152119
  0.7421709691886349  0.8575151680057189  0.7274811331880926
  0.9476466316322956  0.3788816061050326  0.7226209976554330
  0.9486482351121879  0.8803941919044078  0.7218474052660326
 
  0.00000000E+00  0.00000000E+00  0.00000000E+00
  0.00000000E+00  0.00000000E+00  0.00000000E+00
  0.00000000E+00  0.00000000E+00  0.00000000E+00
  0.00000000E+00  0.00000000E+00  0.00000000E+00
  0.00000000E+00  0.00000000E+00  0.00000000E+00
  0.00000000E+00  0.00000000E+00  0.00000000E+00
  0.00000000E+00  0.00000000E+00  0.00000000E+00
  0.00000000E+00  0.00000000E+00  0.00000000E+00
  0.00000000E+00  0.00000000E+00  0.00000000E+00
  0.00000000E+00  0.00000000E+00  0.00000000E+00
  0.00000000E+00  0.00000000E+00  0.00000000E+00
  0.00000000E+00  0.00000000E+00  0.00000000E+00
  0.00000000E+00  0.00000000E+00  0.00000000E+00
  0.00000000E+00  0.00000000E+00  0.00000000E+00
  0.00000000E+00  0.00000000E+00  0.00000000E+00
  0.00000000E+00  0.00000000E+00  0.00000000E+00
  0.00000000E+00  0.00000000E+00  0.00000000E+00
  0.00000000E+00  0.00000000E+00  0.00000000E+00
  0.00000000E+00  0.00000000E+00  0.00000000E+00
  0.00000000E+00  0.00000000E+00  0.00000000E+00
  0.00000000E+00  0.00000000E+00  0.00000000E+00
  0.00000000E+00  0.00000000E+00  0.00000000E+00
  0.00000000E+00  0.00000000E+00  0.00000000E+00
  0.00000000E+00  0.00000000E+00  0.00000000E+00
  0.00000000E+00  0.00000000E+00  0.00000000E+00
  0.00000000E+00  0.00000000E+00  0.00000000E+00
  0.00000000E+00  0.00000000E+00  0.00000000E+00
  0.00000000E+00  0.00000000E+00  0.00000000E+00
  0.00000000E+00  0.00000000E+00  0.00000000E+00
  0.00000000E+00  0.00000000E+00  0.00000000E+00
  0.00000000E+00  0.00000000E+00  0.00000000E+00
  0.00000000E+00  0.00000000E+00  0.00000000E+00
  0.00000000E+00  0.00000000E+00  0.00000000E+00
  0.00000000E+00  0.00000000E+00  0.00000000E+00
  0.00000000E+00  0.00000000E+00  0.00000000E+00
  0.00000000E+00  0.00000000E+00  0.00000000E+00
  0.00000000E+00  0.00000000E+00  0.00000000E+00
  0.00000000E+00  0.00000000E+00  0.00000000E+00
  0.00000000E+00  0.00000000E+00  0.00000000E+00
  0.00000000E+00  0.00000000E+00  0.00000000E+00
  0.00000000E+00  0.00000000E+00  0.00000000E+00
  0.00000000E+00  0.00000000E+00  0.00000000E+00
  0.00000000E+00  0.00000000E+00  0.00000000E+00
  0.00000000E+00  0.00000000E+00  0.00000000E+00
  0.00000000E+00  0.00000000E+00  0.00000000E+00
  0.00000000E+00  0.00000000E+00  0.00000000E+00
  0.00000000E+00  0.00000000E+00  0.00000000E+00
  0.00000000E+00  0.00000000E+00  0.00000000E+00
  0.00000000E+00  0.00000000E+00  0.00000000E+00
  0.00000000E+00  0.00000000E+00  0.00000000E+00
  0.00000000E+00  0.00000000E+00  0.00000000E+00
  0.00000000E+00  0.00000000E+00  0.00000000E+00
  0.00000000E+00  0.00000000E+00  0.00000000E+00
  0.00000000E+00  0.00000000E+00  0.00000000E+00
  0.00000000E+00  0.00000000E+00  0.00000000E+00
  0.00000000E+00  0.00000000E+00  0.00000000E+00
  0.00000000E+00  0.00000000E+00  0.00000000E+00
  0.00000000E+00  0.00000000E+00  0.00000000E+00
  0.00000000E+00  0.00000000E+00  0.00000000E+00
  0.00000000E+00  0.00000000E+00  0.00000000E+00
  0.00000000E+00  0.00000000E+00  0.00000000E+00
  0.00000000E+00  0.00000000E+00  0.00000000E+00
  0.00000000E+00  0.00000000E+00  0.00000000E+00
  0.00000000E+00  0.00000000E+00  0.00000000E+00
  0.00000000E+00  0.00000000E+00  0.00000000E+00
  0.00000000E+00  0.00000000E+00  0.00000000E+00
  0.00000000E+00  0.00000000E+00  0.00000000E+00
  0.00000000E+00  0.00000000E+00  0.00000000E+00
  0.00000000E+00  0.00000000E+00  0.00000000E+00
  0.00000000E+00  0.00000000E+00  0.00000000E+00
  0.00000000E+00  0.00000000E+00  0.00000000E+00
  0.00000000E+00  0.00000000E+00  0.00000000E+00
  0.00000000E+00  0.00000000E+00  0.00000000E+00
  0.00000000E+00  0.00000000E+00  0.00000000E+00
  0.00000000E+00  0.00000000E+00  0.00000000E+00
  0.00000000E+00  0.00000000E+00  0.00000000E+00
  0.00000000E+00  0.00000000E+00  0.00000000E+00
  0.00000000E+00  0.00000000E+00  0.00000000E+00
  0.00000000E+00  0.00000000E+00  0.00000000E+00
  0.00000000E+00  0.00000000E+00  0.00000000E+00
  0.00000000E+00  0.00000000E+00  0.00000000E+00
  0.00000000E+00  0.00000000E+00  0.00000000E+00
  0.00000000E+00  0.00000000E+00  0.00000000E+00
  0.00000000E+00  0.00000000E+00  0.00000000E+00
  0.00000000E+00  0.00000000E+00  0.00000000E+00
  0.00000000E+00  0.00000000E+00  0.00000000E+00
  0.00000000E+00  0.00000000E+00  0.00000000E+00
  0.00000000E+00  0.00000000E+00  0.00000000E+00
  0.00000000E+00  0.00000000E+00  0.00000000E+00
  0.00000000E+00  0.00000000E+00  0.00000000E+00
  0.00000000E+00  0.00000000E+00  0.00000000E+00
  0.00000000E+00  0.00000000E+00  0.00000000E+00
  0.00000000E+00  0.00000000E+00  0.00000000E+00
  0.00000000E+00  0.00000000E+00  0.00000000E+00
  0.00000000E+00  0.00000000E+00  0.00000000E+00
  0.00000000E+00  0.00000000E+00  0.00000000E+00
  0.00000000E+00  0.00000000E+00  0.00000000E+00
  0.00000000E+00  0.00000000E+00  0.00000000E+00
  0.00000000E+00  0.00000000E+00  0.00000000E+00
  0.00000000E+00  0.00000000E+00  0.00000000E+00
  0.00000000E+00  0.00000000E+00  0.00000000E+00
  0.00000000E+00  0.00000000E+00  0.00000000E+00
  0.00000000E+00  0.00000000E+00  0.00000000E+00
  0.00000000E+00  0.00000000E+00  0.00000000E+00
  0.00000000E+00  0.00000000E+00  0.00000000E+00
  0.00000000E+00  0.00000000E+00  0.00000000E+00
  0.00000000E+00  0.00000000E+00  0.00000000E+00
  0.00000000E+00  0.00000000E+00  0.00000000E+00
  0.00000000E+00  0.00000000E+00  0.00000000E+00
  0.00000000E+00  0.00000000E+00  0.00000000E+00
  0.00000000E+00  0.00000000E+00  0.00000000E+00
  0.00000000E+00  0.00000000E+00  0.00000000E+00
  0.00000000E+00  0.00000000E+00  0.00000000E+00
  0.00000000E+00  0.00000000E+00  0.00000000E+00
  0.00000000E+00  0.00000000E+00  0.00000000E+00
  0.00000000E+00  0.00000000E+00  0.00000000E+00
  0.00000000E+00  0.00000000E+00  0.00000000E+00
  0.00000000E+00  0.00000000E+00  0.00000000E+00
  0.00000000E+00  0.00000000E+00  0.00000000E+00
  0.00000000E+00  0.00000000E+00  0.00000000E+00
