Li36 Mn12 Ni12 O60                      
   1.00000000000000     
    24.9848993877604819   -0.0819851580134953    0.1681463755949217
    -5.0139789230683265    8.6197422471576814    0.0206461174539145
    -0.8101721684193820   -1.4234148178492094    4.7311456244740429
   Li   Mn   Ni   O 
    36    12    12    60
Direct
  0.5336169530918085  0.1702692817968128  0.4970501409006971
  0.7330613962365362  0.6664839201487638  0.4995706910335471
  0.9326298196709502  0.1621936597367153  0.5029222912228164
  0.9342400120982717  0.6677504081394829  0.5007231583413159
  0.1025768999452055  0.2523308876660195  0.0091042949875089
  0.1010267686829849  0.7467657058180208  0.0077084661803966
  0.3025464062945318  0.2526226454339522  0.9908214134959579
  0.2976035950373586  0.7530550659360600  0.0023910972159769
  0.5038145119494573  0.2537793469512337  0.9932927956761048
  0.4996146484344948  0.7449835898455035  0.0004184220608039
  0.6994471798196997  0.2512772914215873  0.9939803164094556
  0.6988505480947609  0.7436877312411809  0.0049791676306441
  0.9012229582953424  0.2388957916745440  0.9996213715427160
  0.8995986702884409  0.7445657332323279  0.9981386045179903
  0.1677732203678843  0.0854370720391273  0.9891436353812111
  0.1675741445054371  0.5896229712760714  0.9965375981322069
  0.3679011877370399  0.0905687438539786  0.0126075981764231
  0.3641060842853250  0.5759771382237844  0.9919836146840950
  0.5661575725304147  0.0960349817238608  0.0098783272580221
  0.5668045020691963  0.5823256749159071  0.9970974181274386
  0.7674267031442383  0.0781720142103310  0.0022185205942407
  0.7657216363477914  0.5890922663126190  0.0009265567887269
  0.9643045118962803  0.0793165666471012  0.9955842715190073
  0.9655383579328358  0.5856120915396588  0.0102143234988361
  0.0337398810276710  0.4112417598508671  0.9953383888565739
  0.0305516345491554  0.9071463903553223  0.9845239835889288
  0.2322235045379912  0.4201367670667793  0.0031042876266412
  0.2322713552404494  0.9192865072750962  0.9970140971358106
  0.4323365824173280  0.4197212672278070  0.0008561768567574
  0.4331359781685720  0.9270371571893534  0.0106797075443268
  0.6326426691176508  0.4151622448772443  0.0019751957320722
  0.6349507532537899  0.9072559175840453  0.9982830138082690
  0.8344051312134084  0.4215288095293204  0.0032389883375288
  0.8321752883133513  0.9177742212020661  0.9959275957850977
  0.1356181587881906  0.6715110062915741  0.5062542689427616
  0.3330644592932401  0.1698700254057641  0.4958798865824221
  0.4661010789897446  0.3326624722384963  0.5056228071847642
  0.4655440815520890  0.8368044908360943  0.5022865812791437
  0.8688103540715346  0.3342094399484381  0.5025527300715282
  0.8667274828810179  0.8355956570584055  0.5046061416814140
  0.9995583811508411  0.9959090561499693  0.4999704457526235
  0.0016750857021961  0.5029837270699247  0.5019102080293436
  0.5995904047056726  0.0014511061360096  0.4998415731853711
  0.6009438935256739  0.4959923122008476  0.4999502261092275
  0.8009206296857982  0.5012538302207759  0.5028874103220602
  0.0670888309938888  0.3351163994512660  0.4985973655473686
  0.2645562985679106  0.3287103142769823  0.4801605071659836
  0.2656254971968295  0.8390382693414509  0.5091737609315388
  0.5336322738612509  0.6658287986448812  0.5079222004327946
  0.7334180617978987  0.1625493814286756  0.4972432361269057
  0.6660749315382049  0.3334475204359535  0.5019689644536740
  0.6686048675326859  0.8298142074744987  0.4995802232636919
  0.8013983980654515  0.0000836046274344  0.4987707209435968
  0.1332877214392951  0.1647253660301828  0.4923415508912399
  0.3313165798382798  0.6650855085628322  0.4970557040970149
  0.0677257075924231  0.8324026259204516  0.5002170673661368
  0.1993690780258817  0.9987621706883729  0.4962898678265404
  0.1984952957272696  0.5020109770841898  0.4989359442210599
  0.3992991112371627  0.0029711915291557  0.5031232360628550
  0.3989084802720768  0.4991920945856023  0.4984439743884863
  0.0206930139331263  0.2014045707719703  0.7248664189382765
  0.0222062764950550  0.7083003873622786  0.7241514171612735
  0.2171808254819680  0.1969898053564165  0.7122468309346601
  0.2210870695054865  0.7210793756042477  0.7441618870176896
  0.4181248193337979  0.1986521342955925  0.7274706948463674
  0.4159282950717369  0.7023012357985650  0.7226871705953997
  0.6185860162699726  0.2030352311286947  0.7222199528439148
  0.6174289118252503  0.6977115711455610  0.7333175931481719
  0.8172324789496628  0.2058492164692254  0.7244427772191813
  0.8198396290999881  0.7021852382056792  0.7290344750390716
  0.1859505297344768  0.2889562429657175  0.2522268924533577
  0.1898014194233113  0.8127880796975475  0.2767741671921087
  0.3896203027480283  0.3088522369513811  0.2731909622368107
  0.3878146567442045  0.8094772054069352  0.2787884965867136
  0.5855656827752114  0.3045253576585338  0.2600446578738982
  0.5864172173993296  0.8053256088163110  0.2774974899824940
  0.7898266464572501  0.3036000743098555  0.2760480534352467
  0.7917316540194435  0.8073323996145874  0.2736648931237724
  0.9909124819613808  0.3091799269925346  0.2734204473686219
  0.9923326963224781  0.8074166185570419  0.2776722712353532
  0.1188008735234121  0.4540158810887860  0.2745398790638731
  0.1190777858533636  0.9500726862795474  0.2819204418443348
  0.3117397349617974  0.4489558695359150  0.2534397084620252
  0.3209023561669895  0.9564929399107953  0.2828270012665541
  0.5182828133638679  0.4526093801532411  0.2786035816139787
  0.5179891473379712  0.9525871105789250  0.2745060352684732
  0.7194636010659536  0.4503870460854458  0.2834170868838157
  0.7174860719673219  0.9672366956294169  0.2645808419598197
  0.9198566687635932  0.4509870191165462  0.2744270576352008
  0.9205073476501582  0.9492584193366511  0.2771233134631643
  0.0783306401590167  0.0231426113310036  0.7198095927461310
  0.0778812439366163  0.5266373509125231  0.7314057397283875
  0.2749835904435685  0.0318281629072175  0.7231119572793716
  0.2743607578636400  0.5226052830375352  0.7140561905070371
  0.4746151782965953  0.0263298594449140  0.7249443485922100
  0.4812653671253742  0.5282498658736614  0.7423026646789523
  0.6773497862406188  0.0331936784070663  0.7227477126403272
  0.6765294677055849  0.5253889599976134  0.7293525318921965
  0.8821161671662523  0.0255734552969713  0.7405189970335186
  0.8796184106057154  0.5295325361469452  0.7279995227561429
  0.0481973517054257  0.1284909915681425  0.2713997999390330
  0.0488105012016860  0.6352783592594307  0.2785878622034446
  0.2456124870743608  0.1234879093308194  0.2717292975422154
  0.2469087868235675  0.6331644003274235  0.2788651526165680
  0.4448872643084698  0.1250779664260477  0.2805414731423426
  0.4475383880210586  0.6308219039779388  0.2801102897689347
  0.6504646635529099  0.1284198073494167  0.2809300290087435
  0.6469700120848287  0.6247461868147113  0.2722451571201177
  0.8496631253585534  0.1311828409663747  0.2796067244096392
  0.8472194789438490  0.6281799912836803  0.2728092946004068
  0.1482223260071862  0.3793137892321639  0.7202392980458114
  0.1470914496698370  0.8824458870095455  0.7144476731360072
  0.3459056728318401  0.3814316853594235  0.7140262926100647
  0.3483038856314735  0.8841358790742717  0.7241708693391757
  0.5472722237721115  0.3770151147970964  0.7227840451235608
  0.5469028572354233  0.8831205425937938  0.7285311923470843
  0.7523866107837378  0.3713522358516954  0.7287622094757964
  0.7503909969583162  0.8842012933875338  0.7193756670849183
  0.9493315104324296  0.3838546512379324  0.7304527162045247
  0.9495367017271121  0.8791380774720849  0.7253809183344657
 
  0.00000000E+00  0.00000000E+00  0.00000000E+00
  0.00000000E+00  0.00000000E+00  0.00000000E+00
  0.00000000E+00  0.00000000E+00  0.00000000E+00
  0.00000000E+00  0.00000000E+00  0.00000000E+00
  0.00000000E+00  0.00000000E+00  0.00000000E+00
  0.00000000E+00  0.00000000E+00  0.00000000E+00
  0.00000000E+00  0.00000000E+00  0.00000000E+00
  0.00000000E+00  0.00000000E+00  0.00000000E+00
  0.00000000E+00  0.00000000E+00  0.00000000E+00
  0.00000000E+00  0.00000000E+00  0.00000000E+00
  0.00000000E+00  0.00000000E+00  0.00000000E+00
  0.00000000E+00  0.00000000E+00  0.00000000E+00
  0.00000000E+00  0.00000000E+00  0.00000000E+00
  0.00000000E+00  0.00000000E+00  0.00000000E+00
  0.00000000E+00  0.00000000E+00  0.00000000E+00
  0.00000000E+00  0.00000000E+00  0.00000000E+00
  0.00000000E+00  0.00000000E+00  0.00000000E+00
  0.00000000E+00  0.00000000E+00  0.00000000E+00
  0.00000000E+00  0.00000000E+00  0.00000000E+00
  0.00000000E+00  0.00000000E+00  0.00000000E+00
  0.00000000E+00  0.00000000E+00  0.00000000E+00
  0.00000000E+00  0.00000000E+00  0.00000000E+00
  0.00000000E+00  0.00000000E+00  0.00000000E+00
  0.00000000E+00  0.00000000E+00  0.00000000E+00
  0.00000000E+00  0.00000000E+00  0.00000000E+00
  0.00000000E+00  0.00000000E+00  0.00000000E+00
  0.00000000E+00  0.00000000E+00  0.00000000E+00
  0.00000000E+00  0.00000000E+00  0.00000000E+00
  0.00000000E+00  0.00000000E+00  0.00000000E+00
  0.00000000E+00  0.00000000E+00  0.00000000E+00
  0.00000000E+00  0.00000000E+00  0.00000000E+00
  0.00000000E+00  0.00000000E+00  0.00000000E+00
  0.00000000E+00  0.00000000E+00  0.00000000E+00
  0.00000000E+00  0.00000000E+00  0.00000000E+00
  0.00000000E+00  0.00000000E+00  0.00000000E+00
  0.00000000E+00  0.00000000E+00  0.00000000E+00
  0.00000000E+00  0.00000000E+00  0.00000000E+00
  0.00000000E+00  0.00000000E+00  0.00000000E+00
  0.00000000E+00  0.00000000E+00  0.00000000E+00
  0.00000000E+00  0.00000000E+00  0.00000000E+00
  0.00000000E+00  0.00000000E+00  0.00000000E+00
  0.00000000E+00  0.00000000E+00  0.00000000E+00
  0.00000000E+00  0.00000000E+00  0.00000000E+00
  0.00000000E+00  0.00000000E+00  0.00000000E+00
  0.00000000E+00  0.00000000E+00  0.00000000E+00
  0.00000000E+00  0.00000000E+00  0.00000000E+00
  0.00000000E+00  0.00000000E+00  0.00000000E+00
  0.00000000E+00  0.00000000E+00  0.00000000E+00
  0.00000000E+00  0.00000000E+00  0.00000000E+00
  0.00000000E+00  0.00000000E+00  0.00000000E+00
  0.00000000E+00  0.00000000E+00  0.00000000E+00
  0.00000000E+00  0.00000000E+00  0.00000000E+00
  0.00000000E+00  0.00000000E+00  0.00000000E+00
  0.00000000E+00  0.00000000E+00  0.00000000E+00
  0.00000000E+00  0.00000000E+00  0.00000000E+00
  0.00000000E+00  0.00000000E+00  0.00000000E+00
  0.00000000E+00  0.00000000E+00  0.00000000E+00
  0.00000000E+00  0.00000000E+00  0.00000000E+00
  0.00000000E+00  0.00000000E+00  0.00000000E+00
  0.00000000E+00  0.00000000E+00  0.00000000E+00
  0.00000000E+00  0.00000000E+00  0.00000000E+00
  0.00000000E+00  0.00000000E+00  0.00000000E+00
  0.00000000E+00  0.00000000E+00  0.00000000E+00
  0.00000000E+00  0.00000000E+00  0.00000000E+00
  0.00000000E+00  0.00000000E+00  0.00000000E+00
  0.00000000E+00  0.00000000E+00  0.00000000E+00
  0.00000000E+00  0.00000000E+00  0.00000000E+00
  0.00000000E+00  0.00000000E+00  0.00000000E+00
  0.00000000E+00  0.00000000E+00  0.00000000E+00
  0.00000000E+00  0.00000000E+00  0.00000000E+00
  0.00000000E+00  0.00000000E+00  0.00000000E+00
  0.00000000E+00  0.00000000E+00  0.00000000E+00
  0.00000000E+00  0.00000000E+00  0.00000000E+00
  0.00000000E+00  0.00000000E+00  0.00000000E+00
  0.00000000E+00  0.00000000E+00  0.00000000E+00
  0.00000000E+00  0.00000000E+00  0.00000000E+00
  0.00000000E+00  0.00000000E+00  0.00000000E+00
  0.00000000E+00  0.00000000E+00  0.00000000E+00
  0.00000000E+00  0.00000000E+00  0.00000000E+00
  0.00000000E+00  0.00000000E+00  0.00000000E+00
  0.00000000E+00  0.00000000E+00  0.00000000E+00
  0.00000000E+00  0.00000000E+00  0.00000000E+00
  0.00000000E+00  0.00000000E+00  0.00000000E+00
  0.00000000E+00  0.00000000E+00  0.00000000E+00
  0.00000000E+00  0.00000000E+00  0.00000000E+00
  0.00000000E+00  0.00000000E+00  0.00000000E+00
  0.00000000E+00  0.00000000E+00  0.00000000E+00
  0.00000000E+00  0.00000000E+00  0.00000000E+00
  0.00000000E+00  0.00000000E+00  0.00000000E+00
  0.00000000E+00  0.00000000E+00  0.00000000E+00
  0.00000000E+00  0.00000000E+00  0.00000000E+00
  0.00000000E+00  0.00000000E+00  0.00000000E+00
  0.00000000E+00  0.00000000E+00  0.00000000E+00
  0.00000000E+00  0.00000000E+00  0.00000000E+00
  0.00000000E+00  0.00000000E+00  0.00000000E+00
  0.00000000E+00  0.00000000E+00  0.00000000E+00
  0.00000000E+00  0.00000000E+00  0.00000000E+00
  0.00000000E+00  0.00000000E+00  0.00000000E+00
  0.00000000E+00  0.00000000E+00  0.00000000E+00
  0.00000000E+00  0.00000000E+00  0.00000000E+00
  0.00000000E+00  0.00000000E+00  0.00000000E+00
  0.00000000E+00  0.00000000E+00  0.00000000E+00
  0.00000000E+00  0.00000000E+00  0.00000000E+00
  0.00000000E+00  0.00000000E+00  0.00000000E+00
  0.00000000E+00  0.00000000E+00  0.00000000E+00
  0.00000000E+00  0.00000000E+00  0.00000000E+00
  0.00000000E+00  0.00000000E+00  0.00000000E+00
  0.00000000E+00  0.00000000E+00  0.00000000E+00
  0.00000000E+00  0.00000000E+00  0.00000000E+00
  0.00000000E+00  0.00000000E+00  0.00000000E+00
  0.00000000E+00  0.00000000E+00  0.00000000E+00
  0.00000000E+00  0.00000000E+00  0.00000000E+00
  0.00000000E+00  0.00000000E+00  0.00000000E+00
  0.00000000E+00  0.00000000E+00  0.00000000E+00
  0.00000000E+00  0.00000000E+00  0.00000000E+00
  0.00000000E+00  0.00000000E+00  0.00000000E+00
  0.00000000E+00  0.00000000E+00  0.00000000E+00
  0.00000000E+00  0.00000000E+00  0.00000000E+00
  0.00000000E+00  0.00000000E+00  0.00000000E+00
  0.00000000E+00  0.00000000E+00  0.00000000E+00
