Li36 Mn12 Ni12 O60                      
   1.00000000000000     
    24.9118092021427202   -0.1470788550442727    0.0893685277220025
    -5.0216217490536526    8.6753881775386610    0.0652989774674715
    -0.8203643535198470   -1.4140026709616675    4.7281327447364401
   Li   Mn   Ni   O 
    36    12    12    60
Direct
  0.5309062546105494  0.1634300280057488  0.5025152333433525
  0.5321706952180989  0.6648672398703752  0.4999477295705645
  0.7333618205587626  0.1667404696547692  0.4997462824812544
  0.7333794877400521  0.6664962302657855  0.4999507984015068
  0.9353720872242448  0.1693341817567600  0.4980590275205614
  0.9353446473641824  0.6692103961873741  0.4980446086975334
  0.0983406913771248  0.2468144095287101  0.0024583399216809
  0.0987003648453779  0.7469908860454169  0.0033046246683881
  0.2986530044439419  0.2472755694886928  0.9996419445692979
  0.3010537093094214  0.7499178883394961  0.9989245055954115
  0.4989542445671304  0.2472474761129604  0.9990296364628719
  0.5018203499079661  0.7473302732165905  0.9921264142329207
  0.7009094600323778  0.2475965483192510  0.0005949037490467
  0.7011800074522370  0.7478185338511594  0.0005188340655167
  0.9012339088745094  0.2478127144992825  0.9997624702648409
  0.9011312101249800  0.7476216694682449  0.9996914174149367
  0.1661831168592727  0.0778265481445644  0.9973027650170820
  0.1662482244040717  0.5781239939155967  0.9954159451446571
  0.3671321444419533  0.0813861008019501  0.9918018427077158
  0.3681366631979017  0.5853247505614974  0.0005095531448234
  0.5645097316942582  0.0841261628789596  0.9963319672277748
  0.5669100842018580  0.5872198887125535  0.0044117267667190
  0.7659968708640079  0.0863020427458352  0.9994749481800866
  0.7658314835197402  0.5858826957832690  0.9991276715536159
  0.9668969692799934  0.0874896139481436  0.0058828178665209
  0.9669264570461849  0.5873989615689723  0.0059324523020621
  0.0314427646438915  0.4131473789894713  0.9890594286383703
  0.0312791733175928  0.9130319511631484  0.9885518775776347
  0.2317185648501408  0.4238552976508529  0.9997379742147885
  0.2335845266916721  0.9233212055876336  0.0065748004044366
  0.4345492476014456  0.4189105647389297  0.0068935997775768
  0.4336512726199828  0.9263576956243327  0.0168888749396601
  0.6331950119906509  0.4157778140826949  0.0017383405384734
  0.6330979191745243  0.9169696875082352  0.0003718871403180
  0.8338349169187111  0.4171241479894547  0.9994350870216948
  0.8339351081637503  0.9171725784905291  0.9996041060756227
  0.4659081063062231  0.3336289229018519  0.5078668635800980
  0.4651101861136766  0.8292958102003851  0.4947524141691844
  0.6661166018501916  0.3323195076532741  0.4999918947078186
  0.6664834964543331  0.8329103977571393  0.5007625897285877
  0.8673223623798521  0.3344223999415732  0.4997728455042463
  0.8673179481551898  0.8342890672695304  0.4997022645964222
  0.0011681804999313  0.0011409053640321  0.4971293239440797
  0.0011498544806656  0.5010914925505006  0.4973583384028828
  0.5993187931292923  0.9987389592963680  0.4997666401381551
  0.5993804517388170  0.4990702121831490  0.5006649839969128
  0.8004570839549814  0.0007546130698302  0.4995773983852203
  0.8003027535808513  0.5005185722641059  0.4994702032023142
  0.1340087752022612  0.1675777274266608  0.4989114073555001
  0.1339062899029102  0.6673186487354599  0.4992313013554366
  0.3323393128215812  0.1655287876169993  0.5053018892965895
  0.3319675344255018  0.6647266815597419  0.4969101342299567
  0.0678877061750782  0.3351334634830181  0.4990634661332649
  0.0679274169965467  0.8353060813062001  0.4995969178867412
  0.2672954486986896  0.3340204596530114  0.5004109877727885
  0.2667145928432646  0.8331584766332512  0.4991840007021793
  0.2008591439783558  0.0012755888032316  0.5016142834358988
  0.2008196385526020  0.5009163883080703  0.4995042390804372
  0.3991333221386952  0.9984845873933068  0.5027015373257626
  0.3998844460007547  0.4988854661251878  0.5008270977180516
  0.0205374266113196  0.2064412967742442  0.7175826879316176
  0.0205616655045162  0.7065243924238374  0.7180081747814455
  0.2184697115829053  0.2009303680204440  0.7163111480826601
  0.2182035941606060  0.6996128582707684  0.7147170344496629
  0.4186578667180001  0.2152336473892404  0.7439982773850176
  0.4166621629965945  0.6929530517378453  0.7184763427281098
  0.6181827810807548  0.2010625565320368  0.7252212391235346
  0.6187846324645321  0.7021251602367329  0.7271706254413672
  0.8194863198370470  0.2033002354332609  0.7255426480940699
  0.8194542914584986  0.7032673592891570  0.7254990653427669
  0.1902766864387360  0.3116798663102429  0.2808718624919777
  0.1895309611103428  0.8118448505462013  0.2819420234981891
  0.3878577030845278  0.3092814685885514  0.2812947248914455
  0.3871471809238827  0.7906332452728151  0.2568387156470564
  0.5887472009600359  0.3066831343878746  0.2733672317257287
  0.5891548613697495  0.8067048921768531  0.2718795265054936
  0.7899590537520282  0.3084506074521798  0.2719209352521617
  0.7900150176472494  0.8085288136524795  0.2720159902854178
  0.9908593261856637  0.3091300961889374  0.2734386521490464
  0.9910088303605065  0.8091753516809774  0.2738133940632679
  0.1209451234298342  0.4565483366272574  0.2819990117217088
  0.1212813621262185  0.9572657371257591  0.2833350520399875
  0.3195693457108248  0.4517925400288476  0.2832963123770469
  0.3178855023861118  0.9531563472980125  0.2814270648348796
  0.5179055314558525  0.4506152944991655  0.2758019531645104
  0.5171226541165339  0.9475330561833317  0.2701000353533800
  0.7184405635295334  0.4516189997157838  0.2734717943984037
  0.7186212732934010  0.9518318778217960  0.2736505520386316
  0.9193170145074632  0.4521451070982607  0.2712662945090969
  0.9193454527726175  0.9520636219955136  0.2711283266488422
  0.0795313390597414  0.0367077019421558  0.7367998772730644
  0.0794723763797478  0.5366028567173160  0.7367967222820653
  0.2761515824489535  0.0361363803051873  0.7334665737508388
  0.2760153999798334  0.5356952654545495  0.7285657112475690
  0.4748417371879441  0.0187072225975342  0.7246438411252072
  0.4754265063092689  0.5277508279438266  0.7243168782001845
  0.6766608108416392  0.0249661877032707  0.7273076743227946
  0.6765614459396687  0.5243643712270440  0.7283863432156323
  0.8776665401386055  0.0264528244332638  0.7269693736860887
  0.8775939680721692  0.5264103755473286  0.7269287724159881
  0.0488688186732347  0.1239378825612789  0.2636976030946130
  0.0488296442553775  0.6241883465678839  0.2641777146308684
  0.2460394256387133  0.1182475020519576  0.2725355087247721
  0.2456063296872131  0.6172857624532782  0.2694428001994567
  0.4457509601656753  0.1302551487865387  0.2821078816464819
  0.4463490440372411  0.6229143999045874  0.2793016817079064
  0.6469419639990548  0.1297078819422453  0.2736362252673388
  0.6473641538941308  0.6300187699884816  0.2754127692412638
  0.8480790593607992  0.1315126155558772  0.2737139757596907
  0.8480354548035436  0.6314480084565517  0.2737165403688024
  0.1499336747444815  0.3813270493746543  0.7189636021363199
  0.1498266793385170  0.8817196433867736  0.7198513591517894
  0.3479652385435301  0.3812190646238633  0.7202225001014426
  0.3476105332546524  0.8773648581618829  0.7211300830322713
  0.5471485740826125  0.3816709539057257  0.7304550836264809
  0.5473228237009451  0.8801974663528256  0.7266566238315093
  0.7479186238995368  0.3811528074157025  0.7260379289036933
  0.7481084713361668  0.8815635785855278  0.7265564259919302
  0.9490032792363792  0.3842862658055850  0.7267246033672947
  0.9490329404028017  0.8842870135754595  0.7266530150007213
 
  0.00000000E+00  0.00000000E+00  0.00000000E+00
  0.00000000E+00  0.00000000E+00  0.00000000E+00
  0.00000000E+00  0.00000000E+00  0.00000000E+00
  0.00000000E+00  0.00000000E+00  0.00000000E+00
  0.00000000E+00  0.00000000E+00  0.00000000E+00
  0.00000000E+00  0.00000000E+00  0.00000000E+00
  0.00000000E+00  0.00000000E+00  0.00000000E+00
  0.00000000E+00  0.00000000E+00  0.00000000E+00
  0.00000000E+00  0.00000000E+00  0.00000000E+00
  0.00000000E+00  0.00000000E+00  0.00000000E+00
  0.00000000E+00  0.00000000E+00  0.00000000E+00
  0.00000000E+00  0.00000000E+00  0.00000000E+00
  0.00000000E+00  0.00000000E+00  0.00000000E+00
  0.00000000E+00  0.00000000E+00  0.00000000E+00
  0.00000000E+00  0.00000000E+00  0.00000000E+00
  0.00000000E+00  0.00000000E+00  0.00000000E+00
  0.00000000E+00  0.00000000E+00  0.00000000E+00
  0.00000000E+00  0.00000000E+00  0.00000000E+00
  0.00000000E+00  0.00000000E+00  0.00000000E+00
  0.00000000E+00  0.00000000E+00  0.00000000E+00
  0.00000000E+00  0.00000000E+00  0.00000000E+00
  0.00000000E+00  0.00000000E+00  0.00000000E+00
  0.00000000E+00  0.00000000E+00  0.00000000E+00
  0.00000000E+00  0.00000000E+00  0.00000000E+00
  0.00000000E+00  0.00000000E+00  0.00000000E+00
  0.00000000E+00  0.00000000E+00  0.00000000E+00
  0.00000000E+00  0.00000000E+00  0.00000000E+00
  0.00000000E+00  0.00000000E+00  0.00000000E+00
  0.00000000E+00  0.00000000E+00  0.00000000E+00
  0.00000000E+00  0.00000000E+00  0.00000000E+00
  0.00000000E+00  0.00000000E+00  0.00000000E+00
  0.00000000E+00  0.00000000E+00  0.00000000E+00
  0.00000000E+00  0.00000000E+00  0.00000000E+00
  0.00000000E+00  0.00000000E+00  0.00000000E+00
  0.00000000E+00  0.00000000E+00  0.00000000E+00
  0.00000000E+00  0.00000000E+00  0.00000000E+00
  0.00000000E+00  0.00000000E+00  0.00000000E+00
  0.00000000E+00  0.00000000E+00  0.00000000E+00
  0.00000000E+00  0.00000000E+00  0.00000000E+00
  0.00000000E+00  0.00000000E+00  0.00000000E+00
  0.00000000E+00  0.00000000E+00  0.00000000E+00
  0.00000000E+00  0.00000000E+00  0.00000000E+00
  0.00000000E+00  0.00000000E+00  0.00000000E+00
  0.00000000E+00  0.00000000E+00  0.00000000E+00
  0.00000000E+00  0.00000000E+00  0.00000000E+00
  0.00000000E+00  0.00000000E+00  0.00000000E+00
  0.00000000E+00  0.00000000E+00  0.00000000E+00
  0.00000000E+00  0.00000000E+00  0.00000000E+00
  0.00000000E+00  0.00000000E+00  0.00000000E+00
  0.00000000E+00  0.00000000E+00  0.00000000E+00
  0.00000000E+00  0.00000000E+00  0.00000000E+00
  0.00000000E+00  0.00000000E+00  0.00000000E+00
  0.00000000E+00  0.00000000E+00  0.00000000E+00
  0.00000000E+00  0.00000000E+00  0.00000000E+00
  0.00000000E+00  0.00000000E+00  0.00000000E+00
  0.00000000E+00  0.00000000E+00  0.00000000E+00
  0.00000000E+00  0.00000000E+00  0.00000000E+00
  0.00000000E+00  0.00000000E+00  0.00000000E+00
  0.00000000E+00  0.00000000E+00  0.00000000E+00
  0.00000000E+00  0.00000000E+00  0.00000000E+00
  0.00000000E+00  0.00000000E+00  0.00000000E+00
  0.00000000E+00  0.00000000E+00  0.00000000E+00
  0.00000000E+00  0.00000000E+00  0.00000000E+00
  0.00000000E+00  0.00000000E+00  0.00000000E+00
  0.00000000E+00  0.00000000E+00  0.00000000E+00
  0.00000000E+00  0.00000000E+00  0.00000000E+00
  0.00000000E+00  0.00000000E+00  0.00000000E+00
  0.00000000E+00  0.00000000E+00  0.00000000E+00
  0.00000000E+00  0.00000000E+00  0.00000000E+00
  0.00000000E+00  0.00000000E+00  0.00000000E+00
  0.00000000E+00  0.00000000E+00  0.00000000E+00
  0.00000000E+00  0.00000000E+00  0.00000000E+00
  0.00000000E+00  0.00000000E+00  0.00000000E+00
  0.00000000E+00  0.00000000E+00  0.00000000E+00
  0.00000000E+00  0.00000000E+00  0.00000000E+00
  0.00000000E+00  0.00000000E+00  0.00000000E+00
  0.00000000E+00  0.00000000E+00  0.00000000E+00
  0.00000000E+00  0.00000000E+00  0.00000000E+00
  0.00000000E+00  0.00000000E+00  0.00000000E+00
  0.00000000E+00  0.00000000E+00  0.00000000E+00
  0.00000000E+00  0.00000000E+00  0.00000000E+00
  0.00000000E+00  0.00000000E+00  0.00000000E+00
  0.00000000E+00  0.00000000E+00  0.00000000E+00
  0.00000000E+00  0.00000000E+00  0.00000000E+00
  0.00000000E+00  0.00000000E+00  0.00000000E+00
  0.00000000E+00  0.00000000E+00  0.00000000E+00
  0.00000000E+00  0.00000000E+00  0.00000000E+00
  0.00000000E+00  0.00000000E+00  0.00000000E+00
  0.00000000E+00  0.00000000E+00  0.00000000E+00
  0.00000000E+00  0.00000000E+00  0.00000000E+00
  0.00000000E+00  0.00000000E+00  0.00000000E+00
  0.00000000E+00  0.00000000E+00  0.00000000E+00
  0.00000000E+00  0.00000000E+00  0.00000000E+00
  0.00000000E+00  0.00000000E+00  0.00000000E+00
  0.00000000E+00  0.00000000E+00  0.00000000E+00
  0.00000000E+00  0.00000000E+00  0.00000000E+00
  0.00000000E+00  0.00000000E+00  0.00000000E+00
  0.00000000E+00  0.00000000E+00  0.00000000E+00
  0.00000000E+00  0.00000000E+00  0.00000000E+00
  0.00000000E+00  0.00000000E+00  0.00000000E+00
  0.00000000E+00  0.00000000E+00  0.00000000E+00
  0.00000000E+00  0.00000000E+00  0.00000000E+00
  0.00000000E+00  0.00000000E+00  0.00000000E+00
  0.00000000E+00  0.00000000E+00  0.00000000E+00
  0.00000000E+00  0.00000000E+00  0.00000000E+00
  0.00000000E+00  0.00000000E+00  0.00000000E+00
  0.00000000E+00  0.00000000E+00  0.00000000E+00
  0.00000000E+00  0.00000000E+00  0.00000000E+00
  0.00000000E+00  0.00000000E+00  0.00000000E+00
  0.00000000E+00  0.00000000E+00  0.00000000E+00
  0.00000000E+00  0.00000000E+00  0.00000000E+00
  0.00000000E+00  0.00000000E+00  0.00000000E+00
  0.00000000E+00  0.00000000E+00  0.00000000E+00
  0.00000000E+00  0.00000000E+00  0.00000000E+00
  0.00000000E+00  0.00000000E+00  0.00000000E+00
  0.00000000E+00  0.00000000E+00  0.00000000E+00
  0.00000000E+00  0.00000000E+00  0.00000000E+00
  0.00000000E+00  0.00000000E+00  0.00000000E+00
  0.00000000E+00  0.00000000E+00  0.00000000E+00
  0.00000000E+00  0.00000000E+00  0.00000000E+00
