Li30 Mn3 Co3 Ni24 O60                   
1.0
       25.1633701324         0.0000000000         0.0000000000
       -5.1143175584         8.6181433588         0.0000000000
       -0.7561823013        -1.3681680278         4.7583388485
   Li   Mn   Co   Ni    O
   30    3    3   24   60
Cartesian
     0.530696309         0.792986300         4.731419142
    -2.107300544         5.139730471         4.746587658
     6.253360406         2.171396734         0.046324407
     2.873008982         5.062100156         4.725716413
    11.253778751         2.170074488         0.034470008
     8.005960724         5.014572371         4.746039706
    16.354591126         2.152263613         0.016014284
    13.085887454         5.107146225         4.757217135
    20.591662362         0.817279464         4.746559013
    18.835211816         6.528115318         0.021614483
     3.891671032         0.691349915         0.056894124
     1.199277232         5.008381130         0.010788608
     8.815823590         0.694804306         0.022476404
     5.372292492         3.570588172         4.707637113
    13.854317580         0.720053320         0.033121089
    11.227192254         5.050719715         0.010946038
    18.153279450        -0.633859985         4.728726462
    16.385260634         5.037341296         0.017726261
    23.173096847        -0.621799972         4.729655031
    20.593028755         3.639364781         4.743929297
    -1.216416978         3.625289393         0.039782223
    -4.673630963         6.586627456         4.716402929
     2.996763321         2.206294957         4.750137435
     0.295047240         6.540418717         4.697851687
     7.959798004         2.184844400         4.713659198
     6.146839892         7.881726657         0.028225358
    13.065071883         2.208866935         4.728204319
    11.275681528         7.906344581         0.037149956
    18.870507814         3.613170781         0.001901923
    16.247830825         7.943688006         0.023933860
     7.078842684         6.451617220         2.381560900
     4.530772475         7.890039916         2.435128890
    12.197568263         3.635924206         2.378175198
    14.776477995         5.113999715         2.374993417
    19.718718762         2.228459414         2.337905682
    17.258116820         3.623731378         2.383118820
     4.531317577         4.993701338         2.394623262
    12.187365711         0.749479020         2.386244303
     9.634816365         5.011226595         2.410830675
     2.153048196         0.750673974         2.359001979
    -0.475054131         5.054392833         2.408558035
     7.132298208         0.733645695         2.357424915
    17.245677398         0.768094134         2.387031913
    22.250884919         0.801741171         2.350547861
    19.735850531         5.096229215         2.362788578
    -0.374788169         2.182942943         2.368468476
    -2.985806982         6.510878535         2.373587800
     4.623812911         2.148957049         2.350542331
     1.998196813         6.458544191         2.400449932
     9.619137595         2.189231449         2.389415448
    14.722214798         2.194501502         2.370466856
    12.148409136         6.536280762         2.417862727
    17.205488168         6.538181951         2.383723780
    -0.375103209        -0.610160289         2.340865814
    22.217965390         3.611381981         2.378080752
    -0.478197291         7.909329029         2.370767918
     2.080216125         3.585743188         2.405635908
     7.102936405         3.602563798         2.364122864
    14.738252523        -0.674230835         2.390548790
    19.773741684        -0.637758495         2.372071289
    -1.138271155         0.801006014         3.404155510
    -3.775311966         4.960010709         3.460368531
     3.982413877         0.705705232         3.412280346
     1.106754684         5.128308060         3.448922515
     8.883757901         0.649791707         3.516235537
     6.352488157         5.035069113         3.441971579
    13.856422112         0.694963750         3.473676223
    11.386414854         5.048182403         3.474336205
    18.922602893         0.854852773         3.409429407
    16.447682614         4.960530329         3.492081968
     3.010285372         2.063953290         1.313843627
     0.175286426         6.474437523         1.329101342
     7.908131467         2.281086601         1.265931853
     5.459479462         6.506595390         1.338725814
    12.958151918         2.249755690         1.272632922
    10.425104089         6.498229791         1.336216778
    18.076581522         2.257265112         1.319554581
    15.476989918         6.481270906         1.248963490
    22.964033678         2.207733193         1.315389068
    20.441193793         6.671665425         1.258762388
     0.477389686         3.485482758         1.322016111
    -2.079641919         8.008150184         1.345725675
     5.312177528         3.505411607         1.252854035
     2.968083443         7.795081801         1.336305409
    10.561892261         3.681689376         1.316145196
     7.864861714         7.886920601         1.315160896
    15.696082697         3.644868339         1.292298077
    12.968719136         7.921110750         1.314099593
    20.484257505         3.598236420         1.270960420
    18.077312807         8.045932137         1.304207952
     1.200370767        -0.565149077         3.377054854
    -1.137779719         3.591614063         3.458022151
     6.239920602        -0.796874142         3.382864792
     3.612610301         3.621286048         3.514427466
    11.348557141        -0.769772275         3.465740561
     8.853273759         3.682676003         3.540455757
    16.433941045        -0.704912582         3.506460038
    13.815978316         3.698083137         3.445772358
    21.450614632        -0.537123649         3.418493590
    18.842889722         3.565733617         3.417607847
     0.351896444         0.768950614         1.295978318
    -2.069924938         4.941504923         1.341131897
     5.444826315         0.564024409         1.272846203
     2.727481608         5.050369641         1.361842330
    10.501849405         0.651473523         1.335809926
     7.872592310         5.045935590         1.319538982
    15.585484968         0.669643988         1.285467537
    12.963277057         5.052870952         1.319450919
    20.480776314         0.806497266         1.271843184
    18.044655330         4.981527947         1.349033525
     1.410117773         2.144908859         3.430711333
    -1.296146796         6.624384883         3.477302009
     6.238741693         2.276281327         3.403641876
     3.776653114         6.550764973         3.537896095
    11.457622601         2.221538432         3.462216310
     8.733062249         6.485335611         3.441910317
    16.490275846         2.235313658         3.427464462
    13.902265384         6.578420781         3.496594348
    21.358253755         2.225807275         3.366883990
    18.961150070         6.665811319         3.417858567
